(set-info :source |
 Generated by Alive 0.1
 More info in N. P. Lopes, D. Menendez, S. Nagarakatte, J. Regehr.
 Provably Correct Peephole Optimizations with Alive. In PLDI'15.
|)

(set-info :status unknown)
(declare-fun C2 () (_ BitVec 60))
(declare-fun %X () (_ BitVec 60))
(declare-fun C1 () (_ BitVec 60))
(assert
 (let ((?x144385 (ite (bvsge %X C2) (_ bv1 1) (_ bv0 1))))
 (let ((?x143420 (ite (bvslt %X C1) (_ bv1 1) (_ bv0 1))))
 (let ((?x143187 (bvor ?x143420 ?x144385)))
 (let (($x141502 (= C1 (bvshl (_ bv1 60) (bvsub (_ bv60 60) (_ bv1 60))))))
 (let (($x145363 (and (distinct C1 C2) true)))
 (let (($x133750 (bvsle C1 C2)))
 (and $x133750 $x145363 $x141502 (and (distinct ?x143187 (ite (bvsgt %X (bvsub C2 (_ bv1 60))) (_ bv1 1) (_ bv0 1))) true)))))))))
(check-sat)
